Medium-instances_NetworkFacilityLocation/2023-03-27_20hr-25min-09sec/Nodes10_Arcs35_LocNodes8/Formulation-1Instance-3.lp
\ Model LocPrice
\ LP format - for model browsing. Use MPS format to capture full model detail.
Maximize
  - 175 x[1] - 184 x[3] - 166 x[4] - 175 x[6] - 164 x[7] - 191 x[8]
   - 180 x[9] - 158 x[10] - 4.357297547016286 Q[1] - 3.308850140921788 Q[3]
   - 3.499551038792566 Q[4] - 4.739788492112219 Q[6]
   - 4.200735640871838 Q[7] - 3.523966111941068 Q[8]
   - 3.298829801161976 Q[9] - 3.273578298970379 Q[10] + [ 2 pi[1] * Q[1]
   + 2 pi[3] * Q[3] + 2 pi[4] * Q[4] + 2 pi[6] * Q[6] + 2 pi[7] * Q[7]
   + 2 pi[8] * Q[8] + 2 pi[9] * Q[9] + 2 pi[10] * Q[10] ] / 2 
Subject To
 R0: Q[1] + Q[3] + Q[4] + Q[6] + Q[7] + Q[8] + Q[9] + Q[10] <= 700
 R1: - 122 x[1] + Q[1] <= 0
 R2: - 149 x[3] + Q[3] <= 0
 R3: - 185 x[4] + Q[4] <= 0
 R4: - 164 x[6] + Q[6] <= 0
 R5: - 130 x[7] + Q[7] <= 0
 R6: - 111 x[8] + Q[8] <= 0
 R7: - 196 x[9] + Q[9] <= 0
 R8: - 123 x[10] + Q[10] <= 0
 node[1]: - Q[1] - f[2,1] - f[10,1] + f[1,10] + f[1,7] - f[4,1] - f[7,1]
   + f[1,4] = 0
 node[10]: - Q[10] + f[10,2] + f[10,1] - f[1,10] - f[8,10] - f[7,10]
   + f[10,8] = 0
 node[4]: - Q[4] + f[4,3] - f[2,4] - f[9,4] + f[4,9] + f[4,8] + f[4,1]
   - f[1,4] - S[4] = 0
 node[7]: - Q[7] + f[7,5] + f[7,2] - f[8,7] + f[7,9] - f[1,7] + f[7,10]
   - f[5,7] + f[7,1] - S[7] = 0
 node[9]: - Q[9] + f[9,5] - f[7,9] - f[6,9] + f[9,4] - f[2,9] - f[4,9]
   - f[8,9] + f[9,2] + D[9] = 0
 node[3]: - Q[3] + f[3,2] - f[4,3] + f[3,8] + D[3] = 0
 node[8]: - Q[8] + f[8,6] + f[8,7] + f[8,10] - f[3,8] + f[8,9] + f[8,5]
   - f[6,8] - f[4,8] - f[10,8] + D[8] - S[8] = 0
 node[6]: - Q[6] + f[6,2] - f[8,6] + f[6,5] + f[6,9] + f[6,8] + D[6] - S[6]
   = 0
 node[2]: f[2,1] - f[3,2] - f[5,2] - f[6,2] - f[10,2] - f[7,2] + f[2,4]
   + f[2,9] - f[9,2] + f[2,5] - S[2] = 0
 node[5]: f[5,2] - f[7,5] - f[9,5] - f[6,5] - f[8,5] + f[5,7] - f[2,5]
   + D[5] = 0
 Cost_Flow[2,1]: - pi[1] + pi[2] + 0.4978418751829927 f[2,1] - mu_f[2,1]
   = -1.72265276970906
 Cost_Flow[3,2]: - pi[2] + pi[3] + 0.7656493331408145 f[3,2] - mu_f[3,2]
   = -1.119807670560872
 Cost_Flow[4,3]: - pi[3] + pi[4] + 1.298158113248871 f[4,3] - mu_f[4,3]
   = -1.901475172086296
 Cost_Flow[5,2]: - pi[2] + pi[5] + 1.675127520122123 f[5,2] - mu_f[5,2]
   = -0.3439330769374531
 Cost_Flow[6,2]: - pi[2] + pi[6] + 1.552063894020953 f[6,2] - mu_f[6,2]
   = -0.6992714226943151
 Cost_Flow[7,5]: - pi[5] + pi[7] + 0.6790311504688373 f[7,5] - mu_f[7,5]
   = -2.301723051116181
 Cost_Flow[8,6]: - pi[6] + pi[8] + 0.2971374765446475 f[8,6] - mu_f[8,6]
   = -2.961372815670281
 Cost_Flow[9,5]: - pi[5] + pi[9] + 0.9140387733847359 f[9,5] - mu_f[9,5]
   = -2.424003237967082
 Cost_Flow[10,2]: - pi[2] + pi[10] + 0.8757287153776006 f[10,2]
   - mu_f[10,2] = -2.528896932074772
 Cost_Flow[7,2]: - pi[2] + pi[7] + 0.9287451390228469 f[7,2] - mu_f[7,2]
   = -1.525888080044425
 Cost_Flow[6,5]: - pi[5] + pi[6] + 0.3452014091910012 f[6,5] - mu_f[6,5]
   = -0.8980003510912431
 Cost_Flow[8,7]: - pi[7] + pi[8] + 1.267416867771784 f[8,7] - mu_f[8,7]
   = -0.8370045580054472
 Cost_Flow[10,1]: - pi[1] + pi[10] + 0.9780962494296361 f[10,1]
   - mu_f[10,1] = -1.061055244649146
 Cost_Flow[1,10]: pi[1] - pi[10] + 1.583241200130128 f[1,10] - mu_f[1,10]
   = -0.1329345010121982
 Cost_Flow[7,9]: pi[7] - pi[9] + 0.499724596558057 f[7,9] - mu_f[7,9]
   = -1.281768724859169
 Cost_Flow[8,10]: pi[8] - pi[10] + 0.0260748641900526 f[8,10] - mu_f[8,10]
   = -0.0596251610859079
 Cost_Flow[6,9]: pi[6] - pi[9] + 0.8887042590905216 f[6,9] - mu_f[6,9]
   = -0.4322190168857668
 Cost_Flow[2,4]: pi[2] - pi[4] + 0.513707598361429 f[2,4] - mu_f[2,4]
   = -2.507621626558983
 Cost_Flow[9,4]: - pi[4] + pi[9] + 0.0994901645041217 f[9,4] - mu_f[9,4]
   = -2.411250865543343
 Cost_Flow[3,8]: pi[3] - pi[8] + 0.4673805817368932 f[3,8] - mu_f[3,8]
   = -1.630762660228682
 Cost_Flow[2,9]: pi[2] - pi[9] + 0.5684813308193843 f[2,9] - mu_f[2,9]
   = -1.369185650629626
 Cost_Flow[1,7]: pi[1] - pi[7] + 1.906853346600348 f[1,7] - mu_f[1,7]
   = -1.198474682820141
 Cost_Flow[4,9]: pi[4] - pi[9] + 0.8579564226732759 f[4,9] - mu_f[4,9]
   = -0.3325593556458084
 Cost_Flow[8,9]: pi[8] - pi[9] + 0.7511634393330535 f[8,9] - mu_f[8,9]
   = -2.175861979632093
 Cost_Flow[8,5]: - pi[5] + pi[8] + 1.957601698790646 f[8,5] - mu_f[8,5]
   = -2.878023535495351
 Cost_Flow[6,8]: pi[6] - pi[8] + 0.3663195195779099 f[6,8] - mu_f[6,8]
   = -2.360140521933386
 Cost_Flow[7,10]: pi[7] - pi[10] + 0.5603769877470897 f[7,10] - mu_f[7,10]
   = -2.728740089164268
 Cost_Flow[5,7]: pi[5] - pi[7] + 0.9782671460482866 f[5,7] - mu_f[5,7]
   = -2.610749951460943
 Cost_Flow[4,8]: pi[4] - pi[8] + 0.1882869097420266 f[4,8] - mu_f[4,8]
   = -1.421258927301527
 Cost_Flow[4,1]: - pi[1] + pi[4] + 0.0290972007610797 f[4,1] - mu_f[4,1]
   = -0.5825885509933414
 Cost_Flow[10,8]: - pi[8] + pi[10] + 0.4124207796317736 f[10,8]
   - mu_f[10,8] = -2.720665696838939
 Cost_Flow[9,2]: - pi[2] + pi[9] + 0.7444143692610383 f[9,2] - mu_f[9,2]
   = -0.3522631402763162
 Cost_Flow[7,1]: - pi[1] + pi[7] + 1.689106354475569 f[7,1] - mu_f[7,1]
   = -0.4076006268861251
 Cost_Flow[1,4]: pi[1] - pi[4] + 1.154493896924366 f[1,4] - mu_f[1,4]
   = -1.158012668496804
 Cost_Flow[2,5]: pi[2] - pi[5] + 0.5961411526811093 f[2,5] - mu_f[2,5]
   = -2.892023652962459
 Cost_Demand[3]: pi[3] + 3.341016713100478 D[3] - mu_D[3] = 1366
 Cost_Demand[5]: pi[5] + 3.519791506945289 D[5] - mu_D[5] = 1392
 Cost_Demand[6]: pi[6] + 3.549206449325483 D[6] - mu_D[6] = 1384
 Cost_Demand[8]: pi[8] + 3.192877182631069 D[8] - mu_D[8] = 1348
 Cost_Demand[9]: pi[9] + 3.333216886356982 D[9] - mu_D[9] = 1466
 Cost_Supply[2]: - pi[2] + 0.2710244176062538 S[2] - mu_S[2]
   = -1.79568267859525
 Cost_Supply[4]: - pi[4] + 0.8646031466179812 S[4] - mu_S[4]
   = -1.456841306584836
 Cost_Supply[6]: - pi[6] + 0.068655665918533 S[6] - mu_S[6]
   = -1.738670675036006
 Cost_Supply[7]: - pi[7] + 0.8167344595207268 S[7] - mu_S[7]
   = -1.578454992599021
 Cost_Supply[8]: - pi[8] + 0.8818349988791925 S[8] - mu_S[8]
   = -1.450735566757564
Bounds
Binaries
 x[1] x[3] x[4] x[6] x[7] x[8] x[9] x[10]
SOS
 s0:  S1 :: f[2,1]:1 mu_f[2,1]:2
 s1:  S1 :: f[3,2]:1 mu_f[3,2]:2
 s2:  S1 :: f[4,3]:1 mu_f[4,3]:2
 s3:  S1 :: f[5,2]:1 mu_f[5,2]:2
 s4:  S1 :: f[6,2]:1 mu_f[6,2]:2
 s5:  S1 :: f[7,5]:1 mu_f[7,5]:2
 s6:  S1 :: f[8,6]:1 mu_f[8,6]:2
 s7:  S1 :: f[9,5]:1 mu_f[9,5]:2
 s8:  S1 :: f[10,2]:1 mu_f[10,2]:2
 s9:  S1 :: f[7,2]:1 mu_f[7,2]:2
 s10:  S1 :: f[6,5]:1 mu_f[6,5]:2
 s11:  S1 :: f[8,7]:1 mu_f[8,7]:2
 s12:  S1 :: f[10,1]:1 mu_f[10,1]:2
 s13:  S1 :: f[1,10]:1 mu_f[1,10]:2
 s14:  S1 :: f[7,9]:1 mu_f[7,9]:2
 s15:  S1 :: f[8,10]:1 mu_f[8,10]:2
 s16:  S1 :: f[6,9]:1 mu_f[6,9]:2
 s17:  S1 :: f[2,4]:1 mu_f[2,4]:2
 s18:  S1 :: f[9,4]:1 mu_f[9,4]:2
 s19:  S1 :: f[3,8]:1 mu_f[3,8]:2
 s20:  S1 :: f[2,9]:1 mu_f[2,9]:2
 s21:  S1 :: f[1,7]:1 mu_f[1,7]:2
 s22:  S1 :: f[4,9]:1 mu_f[4,9]:2
 s23:  S1 :: f[8,9]:1 mu_f[8,9]:2
 s24:  S1 :: f[8,5]:1 mu_f[8,5]:2
 s25:  S1 :: f[6,8]:1 mu_f[6,8]:2
 s26:  S1 :: f[7,10]:1 mu_f[7,10]:2
 s27:  S1 :: f[5,7]:1 mu_f[5,7]:2
 s28:  S1 :: f[4,8]:1 mu_f[4,8]:2
 s29:  S1 :: f[4,1]:1 mu_f[4,1]:2
 s30:  S1 :: f[10,8]:1 mu_f[10,8]:2
 s31:  S1 :: f[9,2]:1 mu_f[9,2]:2
 s32:  S1 :: f[7,1]:1 mu_f[7,1]:2
 s33:  S1 :: f[1,4]:1 mu_f[1,4]:2
 s34:  S1 :: f[2,5]:1 mu_f[2,5]:2
 s35:  S1 :: D[3]:1 mu_D[3]:2
 s36:  S1 :: D[5]:1 mu_D[5]:2
 s37:  S1 :: D[6]:1 mu_D[6]:2
 s38:  S1 :: D[8]:1 mu_D[8]:2
 s39:  S1 :: D[9]:1 mu_D[9]:2
 s40:  S1 :: S[2]:1 mu_S[2]:2
 s41:  S1 :: S[4]:1 mu_S[4]:2
 s42:  S1 :: S[6]:1 mu_S[6]:2
 s43:  S1 :: S[7]:1 mu_S[7]:2
 s44:  S1 :: S[8]:1 mu_S[8]:2
End
